qbf_easy_train/easy_2773_SAT.qdimacs
p cnf 25 62
a 1 20 5 0
e 2 3 4 6 7 8 9 10 11 12 13 14 15 16 17 18 19 21 22 23 24 25 0
-2 -3 0
2 -3 0
-3 4 -5 0
3 -4 -5 0
-3 -4 5 0
3 4 5 0
6 -1 0
6 5 0
1 -5 -6 0
-4 7 -8 0
4 -7 -8 0
-4 -7 8 0
4 7 8 0
-9 -8 0
-9 -7 0
8 7 9 0
-9 10 -11 0
9 -10 -11 0
-9 -10 11 0
9 10 11 0
12 -11 0
12 7 0
11 -7 -12 0
13 -12 0
13 -11 0
12 11 -13 0
-10 14 -15 0
10 -14 -15 0
-10 -14 15 0
10 14 15 0
16 -15 0
16 15 0
17 13 0
17 -16 0
-13 16 -17 0
-19 18 0
-19 -14 0
-18 14 19 0
20 17 0
20 19 0
-17 -19 -20 0
-6 20 -21 0
6 -20 -21 0
-6 -20 21 0
6 20 21 0
-23 -22 0
-23 -4 0
22 4 23 0
24 -23 0
24 2 0
23 -2 -24 0
-21 -24 -25 0
21 24 -25 0
-21 24 25 0
21 -24 25 0
3 22 -19 25 20 0
8 -21 22 -14 0
-14 25 23 -4 0
22 9 -15 -25 18 0
19 13 1 0
16 25 12 13 8 0
25 0
