sat_easy_train/easy_2773_SAT.dimacs
p cnf 138 466
-4 2 0
-4 -3 0
-2 3 4 0
5 6 -7 0
-5 -6 -7 0
5 -6 7 0
-5 6 7 0
-8 -4 0
-8 7 0
4 -7 8 0
9 -1 0
9 8 0
1 -8 -9 0
-11 7 0
-11 -10 0
-7 10 11 0
-11 -7 -12 0
11 7 -12 0
-11 7 12 0
11 -7 12 0
-13 9 0
-13 -12 0
-9 12 13 0
-15 -13 0
-15 -14 0
13 14 15 0
-17 -16 0
-17 14 0
16 -14 17 0
16 -17 -18 0
-16 17 -18 0
16 17 18 0
-16 -17 18 0
19 18 0
19 -16 0
-18 16 -19 0
-20 -15 0
-20 -19 0
15 19 20 0
22 21 0
22 -16 0
-21 16 -22 0
23 -7 -24 0
-23 7 -24 0
23 7 24 0
-23 -7 24 0
25 1 0
25 24 0
-1 -24 -25 0
-17 -6 -26 0
17 6 -26 0
-17 6 26 0
17 -6 26 0
-25 -26 -27 0
25 26 -27 0
-25 26 27 0
25 -26 27 0
2 28 -29 0
-2 -28 -29 0
2 -28 29 0
-2 28 29 0
-14 30 -31 0
14 -30 -31 0
-14 -30 31 0
14 30 31 0
-32 24 0
-32 -31 0
-24 31 32 0
-33 -29 0
-33 32 0
29 -32 33 0
27 33 -34 0
-27 -33 -34 0
27 -33 34 0
-27 33 34 0
-23 -10 -35 0
23 10 -35 0
-23 10 35 0
23 -10 35 0
-36 -23 0
-36 -35 0
23 35 36 0
-37 -3 0
-37 -36 0
3 36 37 0
38 34 0
38 -37 0
-34 37 -38 0
-39 -7 0
-39 -35 0
7 35 39 0
40 39 0
40 -25 0
-39 25 -40 0
41 -40 0
41 -2 0
40 2 -41 0
38 -41 -42 0
-38 41 -42 0
38 41 42 0
-38 -41 42 0
43 22 0
43 42 0
-22 -42 -43 0
45 44 0
45 -25 0
-44 25 -45 0
-46 -17 0
-46 -5 0
17 5 46 0
47 -46 0
47 30 0
46 -30 -47 0
-48 -3 0
-48 47 0
3 -47 48 0
49 45 0
49 -48 0
-45 48 -49 0
-50 51 -52 0
50 -51 -52 0
-50 -51 52 0
50 51 52 0
52 -16 -53 0
-52 16 -53 0
52 16 53 0
-52 -16 53 0
54 -14 0
54 16 0
14 -16 -54 0
-55 -53 0
-55 54 0
53 -54 55 0
-49 55 -56 0
49 -55 -56 0
-49 -55 56 0
49 55 56 0
57 -56 0
57 35 0
56 -35 -57 0
-43 -57 -58 0
43 57 -58 0
-43 57 58 0
43 -57 58 0
20 58 -59 0
-20 -58 -59 0
20 -58 59 0
-20 58 59 0
-60 -14 0
-60 25 0
14 -25 60 0
8 -60 -61 0
-8 60 -61 0
8 60 61 0
-8 -60 61 0
-62 -46 0
-62 60 0
46 -60 62 0
63 10 0
63 -62 0
-10 62 -63 0
-25 -63 -64 0
25 63 -64 0
-25 63 64 0
25 -63 64 0
-65 61 0
-65 -64 0
-61 64 65 0
66 -59 0
66 -65 0
59 65 -66 0
-67 -32 0
-67 -27 0
32 27 67 0
-68 -12 0
-68 17 0
12 -17 68 0
-69 -68 0
-69 -60 0
68 60 69 0
-31 -8 -70 0
31 8 -70 0
-31 8 70 0
31 -8 70 0
71 -69 0
71 70 0
69 -70 -71 0
-72 -71 0
-72 26 0
71 -26 72 0
73 67 0
73 72 0
-67 -72 -73 0
-74 -60 0
-74 11 0
60 -11 74 0
-17 74 -75 0
17 -74 -75 0
-17 -74 75 0
17 74 75 0
-73 75 -76 0
73 -75 -76 0
-73 -75 76 0
73 75 76 0
77 66 0
77 -76 0
-66 76 -77 0
78 -3 0
78 5 0
3 -5 -78 0
-46 78 -79 0
46 -78 -79 0
-46 -78 79 0
46 78 79 0
-80 63 0
-80 -79 0
-63 79 80 0
-81 -35 0
-81 -80 0
35 80 81 0
-82 47 0
-82 51 0
-47 -51 82 0
83 -81 0
83 -82 0
81 82 -83 0
-4 -60 -84 0
4 60 -84 0
-4 60 84 0
4 -60 84 0
-85 17 0
-85 -84 0
-17 84 85 0
-1 -52 -86 0
1 52 -86 0
-1 52 86 0
1 -52 86 0
87 16 0
87 -86 0
-16 86 -87 0
-88 45 0
-88 -87 0
-45 87 88 0
89 -85 0
89 -88 0
85 88 -89 0
90 83 0
90 89 0
-83 -89 -90 0
-91 -12 0
-91 28 0
12 -28 91 0
-92 11 0
-92 91 0
-11 -91 92 0
-93 -11 0
-93 -2 0
11 2 93 0
94 93 0
94 -35 0
-93 35 -94 0
95 31 0
95 -94 0
-31 94 -95 0
-96 -9 0
-96 95 0
9 -95 96 0
97 -92 0
97 96 0
92 -96 -97 0
-62 12 -98 0
62 -12 -98 0
-62 -12 98 0
62 12 98 0
-99 -97 0
-99 98 0
97 -98 99 0
100 -90 0
100 99 0
90 -99 -100 0
-101 77 0
-101 100 0
-77 -100 101 0
102 56 0
102 -30 0
-56 30 -102 0
18 3 -103 0
-18 -3 -103 0
18 -3 103 0
-18 3 103 0
102 103 -104 0
-102 -103 -104 0
102 -103 104 0
-102 103 104 0
105 23 0
105 -94 0
-23 94 -105 0
-23 -27 -106 0
23 27 -106 0
-23 27 106 0
23 -27 106 0
-46 74 -107 0
46 -74 -107 0
-46 -74 107 0
46 74 107 0
108 106 0
108 107 0
-106 -107 -108 0
109 17 0
109 -60 0
-17 60 -109 0
108 109 -110 0
-108 -109 -110 0
108 -109 110 0
-108 109 110 0
-111 80 0
-111 48 0
-80 -48 111 0
-112 -12 0
-112 -10 0
12 10 112 0
-113 111 0
-113 -112 0
-111 112 113 0
114 -110 0
114 113 0
110 -113 -114 0
115 105 0
115 114 0
-105 -114 -115 0
116 3 0
116 18 0
-3 -18 -116 0
-116 117 -118 0
116 -117 -118 0
-116 -117 118 0
116 117 118 0
-119 115 0
-119 118 0
-115 -118 119 0
104 119 -120 0
-104 -119 -120 0
104 -119 120 0
-104 119 120 0
-121 34 0
-121 4 0
-34 -4 121 0
-14 121 -122 0
14 -121 -122 0
-14 -121 122 0
14 121 122 0
-94 46 -123 0
94 -46 -123 0
-94 -46 123 0
94 46 123 0
124 62 0
124 -23 0
-62 23 -124 0
124 -86 -125 0
-124 86 -125 0
124 86 125 0
-124 -86 125 0
2 -50 -126 0
-2 50 -126 0
2 50 126 0
-2 -50 126 0
127 47 0
127 -126 0
-47 126 -127 0
128 127 0
128 46 0
-127 -46 -128 0
-125 -128 -129 0
125 128 -129 0
-125 128 129 0
125 -128 129 0
130 -123 0
130 -129 0
123 129 -130 0
-131 -37 0
-131 7 0
37 -7 131 0
132 -131 0
132 121 0
131 -121 -132 0
-24 35 -133 0
24 -35 -133 0
-24 -35 133 0
24 35 133 0
-134 132 0
-134 -133 0
-132 133 134 0
135 -130 0
135 -134 0
130 134 -135 0
-136 -122 0
-136 -135 0
122 135 136 0
137 120 0
137 136 0
-120 -136 -137 0
-138 -101 0
-138 137 0
101 -137 138 0
44 5 108 107 0
-17 -91 0
23 -34 -74 -20 -44 10 0
41 -2 131 0
-97 -55 4 -27 0
28 44 -108 0
102 93 -115 13 -75 0
-81 21 0
-45 119 58 -106 0
-34 133 73 -43 94 0
-57 108 28 81 4 0
-94 -37 -16 98 0
72 -77 48 -36 0
132 46 -12 0
-107 -130 -44 0
-30 135 6 36 0
97 94 0
138 -27 -37 115 134 0
61 35 98 89 0
121 9 -78 135 67 0
42 -41 4 0
-94 73 23 0
5 73 114 87 68 0
-58 -1 0
2 67 0
-120 -121 130 -131 0
104 -63 70 0
-127 -44 -115 -9 -113 0
23 56 0
62 24 126 -31 0
79 -53 0
109 69 -99 50 34 0
-13 114 50 -18 0
51 36 0
-59 10 0
42 -112 -74 -100 0
-15 138 0
24 23 -11 110 68 0
130 48 -8 0
-75 10 97 0
9 -32 -47 -130 0
-116 115 68 -123 0
-89 -11 53 99 78 0
61 -131 -6 0
-121 118 -60 123 0
23 -60 -137 17 0
-123 -131 94 -133 0
80 -57 -68 0
-105 -96 -87 -86 0
120 11 48 -100 9 0
-7 116 5 99 0
-79 62 133 31 131 0
109 54 -104 -12 -80 0
-125 122 0
-103 32 -79 136 -17 73 0
-64 -16 18 134 0
132 -32 -52 26 -85 0
-8 -16 41 69 33 0
79 3 -72 46 0
6 -95 24 0
99 -84 27 13 0
138 0
